; benchmark generated from python API
(set-info :status unknown)
(declare-fun cell_1_3 () Int)
(declare-fun cell_1_4 () Int)
(declare-fun cell_1_6 () Int)
(declare-fun cell_2_7 () Int)
(declare-fun cell_2_8 () Int)
(declare-fun cell_3_1 () Int)
(declare-fun cell_3_6 () Int)
(declare-fun cell_4_2 () Int)
(declare-fun cell_4_3 () Int)
(declare-fun cell_5_6 () Int)
(declare-fun cell_5_9 () Int)
(declare-fun cell_6_4 () Int)
(declare-fun cell_6_8 () Int)
(declare-fun cell_7_1 () Int)
(declare-fun cell_7_5 () Int)
(declare-fun cell_8_2 () Int)
(declare-fun cell_8_7 () Int)
(declare-fun cell_9_5 () Int)
(declare-fun cell_9_9 () Int)
(declare-fun cell_1_1 () Int)
(declare-fun cell_2_1 () Int)
(declare-fun cell_4_1 () Int)
(declare-fun cell_5_1 () Int)
(declare-fun cell_6_1 () Int)
(declare-fun cell_8_1 () Int)
(declare-fun cell_9_1 () Int)
(declare-fun cell_1_2 () Int)
(declare-fun cell_2_2 () Int)
(declare-fun cell_3_2 () Int)
(declare-fun cell_5_2 () Int)
(declare-fun cell_6_2 () Int)
(declare-fun cell_7_2 () Int)
(declare-fun cell_9_2 () Int)
(declare-fun cell_2_3 () Int)
(declare-fun cell_3_3 () Int)
(declare-fun cell_5_3 () Int)
(declare-fun cell_6_3 () Int)
(declare-fun cell_7_3 () Int)
(declare-fun cell_8_3 () Int)
(declare-fun cell_9_3 () Int)
(declare-fun cell_2_4 () Int)
(declare-fun cell_3_4 () Int)
(declare-fun cell_4_4 () Int)
(declare-fun cell_5_4 () Int)
(declare-fun cell_7_4 () Int)
(declare-fun cell_8_4 () Int)
(declare-fun cell_9_4 () Int)
(declare-fun cell_1_5 () Int)
(declare-fun cell_2_5 () Int)
(declare-fun cell_3_5 () Int)
(declare-fun cell_4_5 () Int)
(declare-fun cell_5_5 () Int)
(declare-fun cell_6_5 () Int)
(declare-fun cell_8_5 () Int)
(declare-fun cell_2_6 () Int)
(declare-fun cell_4_6 () Int)
(declare-fun cell_6_6 () Int)
(declare-fun cell_7_6 () Int)
(declare-fun cell_8_6 () Int)
(declare-fun cell_9_6 () Int)
(declare-fun cell_1_7 () Int)
(declare-fun cell_3_7 () Int)
(declare-fun cell_4_7 () Int)
(declare-fun cell_5_7 () Int)
(declare-fun cell_6_7 () Int)
(declare-fun cell_7_7 () Int)
(declare-fun cell_9_7 () Int)
(declare-fun cell_1_8 () Int)
(declare-fun cell_3_8 () Int)
(declare-fun cell_4_8 () Int)
(declare-fun cell_5_8 () Int)
(declare-fun cell_7_8 () Int)
(declare-fun cell_8_8 () Int)
(declare-fun cell_9_8 () Int)
(declare-fun cell_1_9 () Int)
(declare-fun cell_2_9 () Int)
(declare-fun cell_3_9 () Int)
(declare-fun cell_4_9 () Int)
(declare-fun cell_6_9 () Int)
(declare-fun cell_7_9 () Int)
(declare-fun cell_8_9 () Int)
(assert
 (= cell_1_3 2))
(assert
 (= cell_1_4 1))
(assert
 (= cell_1_6 3))
(assert
 (= cell_2_7 1))
(assert
 (= cell_2_8 2))
(assert
 (= cell_3_1 1))
(assert
 (= cell_3_6 2))
(assert
 (= cell_4_2 2))
(assert
 (= cell_4_3 1))
(assert
 (= cell_5_6 1))
(assert
 (= cell_5_9 2))
(assert
 (= cell_6_4 2))
(assert
 (= cell_6_8 1))
(assert
 (= cell_7_1 2))
(assert
 (= cell_7_5 1))
(assert
 (= cell_8_2 1))
(assert
 (= cell_8_7 2))
(assert
 (= cell_9_5 2))
(assert
 (= cell_9_9 1))
(assert
 (let (($x2625 (= cell_1_1 9)))
 (let (($x78 (= cell_1_1 8)))
 (let (($x2038 (= cell_1_1 7)))
 (let (($x1122 (= cell_1_1 6)))
 (let (($x1298 (= cell_1_1 5)))
 (let (($x1464 (= cell_1_1 4)))
 (let (($x3389 (= cell_1_1 3)))
 (let (($x775 (= cell_1_1 2)))
 (let (($x6337 (= cell_1_1 1)))
 (or $x6337 $x775 $x3389 $x1464 $x1298 $x1122 $x2038 $x78 $x2625)))))))))))
(assert
 (let (($x2787 (= cell_2_1 9)))
 (let (($x2800 (= cell_2_1 8)))
 (let (($x2093 (= cell_2_1 7)))
 (let (($x343 (= cell_2_1 6)))
 (let (($x3386 (= cell_2_1 5)))
 (let (($x1024 (= cell_2_1 4)))
 (let (($x1714 (= cell_2_1 3)))
 (let (($x868 (= cell_2_1 2)))
 (let (($x2896 (= cell_2_1 1)))
 (or $x2896 $x868 $x1714 $x1024 $x3386 $x343 $x2093 $x2800 $x2787)))))))))))
(assert
 (let (($x398 (= cell_3_1 1)))
 (or $x398 (= cell_3_1 2) (= cell_3_1 3) (= cell_3_1 4) (= cell_3_1 5) (= cell_3_1 6) (= cell_3_1 7) (= cell_3_1 8) (= cell_3_1 9))))
(assert
 (let (($x385 (= cell_4_1 9)))
 (let (($x326 (= cell_4_1 8)))
 (let (($x2060 (= cell_4_1 7)))
 (let (($x1945 (= cell_4_1 6)))
 (let (($x2845 (= cell_4_1 5)))
 (let (($x1458 (= cell_4_1 4)))
 (let (($x657 (= cell_4_1 3)))
 (let (($x1311 (= cell_4_1 2)))
 (let (($x835 (= cell_4_1 1)))
 (or $x835 $x1311 $x657 $x1458 $x2845 $x1945 $x2060 $x326 $x385)))))))))))
(assert
 (let (($x1118 (= cell_5_1 9)))
 (let (($x256 (= cell_5_1 8)))
 (let (($x1085 (= cell_5_1 7)))
 (let (($x1708 (= cell_5_1 6)))
 (let (($x2507 (= cell_5_1 5)))
 (let (($x1838 (= cell_5_1 4)))
 (let (($x927 (= cell_5_1 3)))
 (let (($x2561 (= cell_5_1 2)))
 (let (($x2340 (= cell_5_1 1)))
 (or $x2340 $x2561 $x927 $x1838 $x2507 $x1708 $x1085 $x256 $x1118)))))))))))
(assert
 (let (($x576 (= cell_6_1 9)))
 (let (($x2105 (= cell_6_1 8)))
 (let (($x6338 (= cell_6_1 7)))
 (let (($x1411 (= cell_6_1 6)))
 (let (($x1390 (= cell_6_1 5)))
 (let (($x158 (= cell_6_1 4)))
 (let (($x54 (= cell_6_1 3)))
 (let (($x538 (= cell_6_1 2)))
 (let (($x55 (= cell_6_1 1)))
 (or $x55 $x538 $x54 $x158 $x1390 $x1411 $x6338 $x2105 $x576)))))))))))
(assert
 (let (($x1692 (= cell_7_1 2)))
 (or (= cell_7_1 1) $x1692 (= cell_7_1 3) (= cell_7_1 4) (= cell_7_1 5) (= cell_7_1 6) (= cell_7_1 7) (= cell_7_1 8) (= cell_7_1 9))))
(assert
 (let (($x355 (= cell_8_1 9)))
 (let (($x1169 (= cell_8_1 8)))
 (let (($x3292 (= cell_8_1 7)))
 (let (($x2890 (= cell_8_1 6)))
 (let (($x2201 (= cell_8_1 5)))
 (let (($x6363 (= cell_8_1 4)))
 (let (($x1994 (= cell_8_1 3)))
 (let (($x1974 (= cell_8_1 2)))
 (let (($x3490 (= cell_8_1 1)))
 (or $x3490 $x1974 $x1994 $x6363 $x2201 $x2890 $x3292 $x1169 $x355)))))))))))
(assert
 (let (($x2520 (= cell_9_1 9)))
 (let (($x1686 (= cell_9_1 8)))
 (let (($x2420 (= cell_9_1 7)))
 (let (($x1365 (= cell_9_1 6)))
 (let (($x1519 (= cell_9_1 5)))
 (let (($x1670 (= cell_9_1 4)))
 (let (($x1961 (= cell_9_1 3)))
 (let (($x414 (= cell_9_1 2)))
 (let (($x764 (= cell_9_1 1)))
 (or $x764 $x414 $x1961 $x1670 $x1519 $x1365 $x2420 $x1686 $x2520)))))))))))
(assert
 (let (($x300 (= cell_1_2 9)))
 (let (($x2886 (= cell_1_2 8)))
 (let (($x3002 (= cell_1_2 7)))
 (let (($x3479 (= cell_1_2 6)))
 (let (($x2383 (= cell_1_2 5)))
 (let (($x3542 (= cell_1_2 4)))
 (let (($x2573 (= cell_1_2 3)))
 (let (($x839 (= cell_1_2 2)))
 (let (($x2411 (= cell_1_2 1)))
 (or $x2411 $x839 $x2573 $x3542 $x2383 $x3479 $x3002 $x2886 $x300)))))))))))
(assert
 (let (($x604 (= cell_2_2 9)))
 (let (($x2848 (= cell_2_2 8)))
 (let (($x2055 (= cell_2_2 7)))
 (let (($x3497 (= cell_2_2 6)))
 (let (($x1992 (= cell_2_2 5)))
 (let (($x346 (= cell_2_2 4)))
 (let (($x2882 (= cell_2_2 3)))
 (let (($x6351 (= cell_2_2 2)))
 (let (($x410 (= cell_2_2 1)))
 (or $x410 $x6351 $x2882 $x346 $x1992 $x3497 $x2055 $x2848 $x604)))))))))))
(assert
 (let (($x129 (= cell_3_2 9)))
 (let (($x114 (= cell_3_2 8)))
 (let (($x3036 (= cell_3_2 7)))
 (let (($x2552 (= cell_3_2 6)))
 (let (($x2008 (= cell_3_2 5)))
 (let (($x614 (= cell_3_2 4)))
 (let (($x388 (= cell_3_2 3)))
 (let (($x1833 (= cell_3_2 2)))
 (let (($x565 (= cell_3_2 1)))
 (or $x565 $x1833 $x388 $x614 $x2008 $x2552 $x3036 $x114 $x129)))))))))))
(assert
 (let (($x445 (= cell_4_2 2)))
 (or (= cell_4_2 1) $x445 (= cell_4_2 3) (= cell_4_2 4) (= cell_4_2 5) (= cell_4_2 6) (= cell_4_2 7) (= cell_4_2 8) (= cell_4_2 9))))
(assert
 (let (($x1167 (= cell_5_2 9)))
 (let (($x579 (= cell_5_2 8)))
 (let (($x672 (= cell_5_2 7)))
 (let (($x103 (= cell_5_2 6)))
 (let (($x1991 (= cell_5_2 5)))
 (let (($x1137 (= cell_5_2 4)))
 (let (($x2247 (= cell_5_2 3)))
 (let (($x134 (= cell_5_2 2)))
 (let (($x2585 (= cell_5_2 1)))
 (or $x2585 $x134 $x2247 $x1137 $x1991 $x103 $x672 $x579 $x1167)))))))))))
(assert
 (let (($x428 (= cell_6_2 9)))
 (let (($x1995 (= cell_6_2 8)))
 (let (($x1770 (= cell_6_2 7)))
 (let (($x3305 (= cell_6_2 6)))
 (let (($x732 (= cell_6_2 5)))
 (let (($x6088 (= cell_6_2 4)))
 (let (($x2092 (= cell_6_2 3)))
 (let (($x3428 (= cell_6_2 2)))
 (let (($x1133 (= cell_6_2 1)))
 (or $x1133 $x3428 $x2092 $x6088 $x732 $x3305 $x1770 $x1995 $x428)))))))))))
(assert
 (let (($x752 (= cell_7_2 9)))
 (let (($x1913 (= cell_7_2 8)))
 (let (($x3558 (= cell_7_2 7)))
 (let (($x295 (= cell_7_2 6)))
 (let (($x3324 (= cell_7_2 5)))
 (let (($x693 (= cell_7_2 4)))
 (let (($x406 (= cell_7_2 3)))
 (let (($x2618 (= cell_7_2 2)))
 (let (($x638 (= cell_7_2 1)))
 (or $x638 $x2618 $x406 $x693 $x3324 $x295 $x3558 $x1913 $x752)))))))))))
(assert
 (let (($x1792 (= cell_8_2 1)))
 (or $x1792 (= cell_8_2 2) (= cell_8_2 3) (= cell_8_2 4) (= cell_8_2 5) (= cell_8_2 6) (= cell_8_2 7) (= cell_8_2 8) (= cell_8_2 9))))
(assert
 (let (($x951 (= cell_9_2 9)))
 (let (($x2015 (= cell_9_2 8)))
 (let (($x1575 (= cell_9_2 7)))
 (let (($x1284 (= cell_9_2 6)))
 (let (($x2770 (= cell_9_2 5)))
 (let (($x560 (= cell_9_2 4)))
 (let (($x2666 (= cell_9_2 3)))
 (let (($x1944 (= cell_9_2 2)))
 (let (($x630 (= cell_9_2 1)))
 (or $x630 $x1944 $x2666 $x560 $x2770 $x1284 $x1575 $x2015 $x951)))))))))))
(assert
 (let (($x1747 (= cell_1_3 2)))
 (or (= cell_1_3 1) $x1747 (= cell_1_3 3) (= cell_1_3 4) (= cell_1_3 5) (= cell_1_3 6) (= cell_1_3 7) (= cell_1_3 8) (= cell_1_3 9))))
(assert
 (let (($x2318 (= cell_2_3 9)))
 (let (($x1493 (= cell_2_3 8)))
 (let (($x726 (= cell_2_3 7)))
 (let (($x2222 (= cell_2_3 6)))
 (let (($x1939 (= cell_2_3 5)))
 (let (($x2663 (= cell_2_3 4)))
 (let (($x131 (= cell_2_3 3)))
 (let (($x307 (= cell_2_3 2)))
 (let (($x2570 (= cell_2_3 1)))
 (or $x2570 $x307 $x131 $x2663 $x1939 $x2222 $x726 $x1493 $x2318)))))))))))
(assert
 (let (($x2254 (= cell_3_3 9)))
 (let (($x426 (= cell_3_3 8)))
 (let (($x1128 (= cell_3_3 7)))
 (let (($x1494 (= cell_3_3 6)))
 (let (($x806 (= cell_3_3 5)))
 (let (($x1004 (= cell_3_3 4)))
 (let (($x843 (= cell_3_3 3)))
 (let (($x2595 (= cell_3_3 2)))
 (let (($x3548 (= cell_3_3 1)))
 (or $x3548 $x2595 $x843 $x1004 $x806 $x1494 $x1128 $x426 $x2254)))))))))))
(assert
 (let (($x1276 (= cell_4_3 1)))
 (or $x1276 (= cell_4_3 2) (= cell_4_3 3) (= cell_4_3 4) (= cell_4_3 5) (= cell_4_3 6) (= cell_4_3 7) (= cell_4_3 8) (= cell_4_3 9))))
(assert
 (let (($x2581 (= cell_5_3 9)))
 (let (($x611 (= cell_5_3 8)))
 (let (($x588 (= cell_5_3 7)))
 (let (($x130 (= cell_5_3 6)))
 (let (($x536 (= cell_5_3 5)))
 (let (($x1628 (= cell_5_3 4)))
 (let (($x2760 (= cell_5_3 3)))
 (let (($x5216 (= cell_5_3 2)))
 (let (($x1252 (= cell_5_3 1)))
 (or $x1252 $x5216 $x2760 $x1628 $x536 $x130 $x588 $x611 $x2581)))))))))))
(assert
 (let (($x3518 (= cell_6_3 9)))
 (let (($x1664 (= cell_6_3 8)))
 (let (($x168 (= cell_6_3 7)))
 (let (($x1190 (= cell_6_3 6)))
 (let (($x5239 (= cell_6_3 5)))
 (let (($x3461 (= cell_6_3 4)))
 (let (($x2645 (= cell_6_3 3)))
 (let (($x981 (= cell_6_3 2)))
 (let (($x3392 (= cell_6_3 1)))
 (or $x3392 $x981 $x2645 $x3461 $x5239 $x1190 $x168 $x1664 $x3518)))))))))))
(assert
 (let (($x214 (= cell_7_3 9)))
 (let (($x291 (= cell_7_3 8)))
 (let (($x1530 (= cell_7_3 7)))
 (let (($x1349 (= cell_7_3 6)))
 (let (($x2297 (= cell_7_3 5)))
 (let (($x1164 (= cell_7_3 4)))
 (let (($x891 (= cell_7_3 3)))
 (let (($x6339 (= cell_7_3 2)))
 (let (($x1209 (= cell_7_3 1)))
 (or $x1209 $x6339 $x891 $x1164 $x2297 $x1349 $x1530 $x291 $x214)))))))))))
(assert
 (let (($x2410 (= cell_8_3 9)))
 (let (($x991 (= cell_8_3 8)))
 (let (($x1923 (= cell_8_3 7)))
 (let (($x70 (= cell_8_3 6)))
 (let (($x2978 (= cell_8_3 5)))
 (let (($x1268 (= cell_8_3 4)))
 (let (($x1255 (= cell_8_3 3)))
 (let (($x1342 (= cell_8_3 2)))
 (let (($x318 (= cell_8_3 1)))
 (or $x318 $x1342 $x1255 $x1268 $x2978 $x70 $x1923 $x991 $x2410)))))))))))
(assert
 (let (($x2315 (= cell_9_3 9)))
 (let (($x88 (= cell_9_3 8)))
 (let (($x123 (= cell_9_3 7)))
 (let (($x1248 (= cell_9_3 6)))
 (let (($x1791 (= cell_9_3 5)))
 (let (($x2245 (= cell_9_3 4)))
 (let (($x2510 (= cell_9_3 3)))
 (let (($x486 (= cell_9_3 2)))
 (let (($x1801 (= cell_9_3 1)))
 (or $x1801 $x486 $x2510 $x2245 $x1791 $x1248 $x123 $x88 $x2315)))))))))))
(assert
 (let (($x2471 (= cell_1_4 1)))
 (or $x2471 (= cell_1_4 2) (= cell_1_4 3) (= cell_1_4 4) (= cell_1_4 5) (= cell_1_4 6) (= cell_1_4 7) (= cell_1_4 8) (= cell_1_4 9))))
(assert
 (let (($x3559 (= cell_2_4 9)))
 (let (($x1581 (= cell_2_4 8)))
 (let (($x2065 (= cell_2_4 7)))
 (let (($x3332 (= cell_2_4 6)))
 (let (($x6368 (= cell_2_4 5)))
 (let (($x1010 (= cell_2_4 4)))
 (let (($x2580 (= cell_2_4 3)))
 (let (($x1638 (= cell_2_4 2)))
 (let (($x138 (= cell_2_4 1)))
 (or $x138 $x1638 $x2580 $x1010 $x6368 $x3332 $x2065 $x1581 $x3559)))))))))))
(assert
 (let (($x838 (= cell_3_4 9)))
 (let (($x746 (= cell_3_4 8)))
 (let (($x700 (= cell_3_4 7)))
 (let (($x1111 (= cell_3_4 6)))
 (let (($x898 (= cell_3_4 5)))
 (let (($x1762 (= cell_3_4 4)))
 (let (($x193 (= cell_3_4 3)))
 (let (($x699 (= cell_3_4 2)))
 (let (($x3413 (= cell_3_4 1)))
 (or $x3413 $x699 $x193 $x1762 $x898 $x1111 $x700 $x746 $x838)))))))))))
(assert
 (let (($x1206 (= cell_4_4 9)))
 (let (($x397 (= cell_4_4 8)))
 (let (($x1654 (= cell_4_4 7)))
 (let (($x3401 (= cell_4_4 6)))
 (let (($x2557 (= cell_4_4 5)))
 (let (($x333 (= cell_4_4 4)))
 (let (($x1154 (= cell_4_4 3)))
 (let (($x310 (= cell_4_4 2)))
 (let (($x3144 (= cell_4_4 1)))
 (or $x3144 $x310 $x1154 $x333 $x2557 $x3401 $x1654 $x397 $x1206)))))))))))
(assert
 (let (($x6354 (= cell_5_4 9)))
 (let (($x3557 (= cell_5_4 8)))
 (let (($x1817 (= cell_5_4 7)))
 (let (($x1658 (= cell_5_4 6)))
 (let (($x6117 (= cell_5_4 5)))
 (let (($x3367 (= cell_5_4 4)))
 (let (($x923 (= cell_5_4 3)))
 (let (($x1845 (= cell_5_4 2)))
 (let (($x1120 (= cell_5_4 1)))
 (or $x1120 $x1845 $x923 $x3367 $x6117 $x1658 $x1817 $x3557 $x6354)))))))))))
(assert
 (let (($x878 (= cell_6_4 2)))
 (or (= cell_6_4 1) $x878 (= cell_6_4 3) (= cell_6_4 4) (= cell_6_4 5) (= cell_6_4 6) (= cell_6_4 7) (= cell_6_4 8) (= cell_6_4 9))))
(assert
 (let (($x1438 (= cell_7_4 9)))
 (let (($x2594 (= cell_7_4 8)))
 (let (($x126 (= cell_7_4 7)))
 (let (($x2427 (= cell_7_4 6)))
 (let (($x2273 (= cell_7_4 5)))
 (let (($x3412 (= cell_7_4 4)))
 (let (($x3545 (= cell_7_4 3)))
 (let (($x3379 (= cell_7_4 2)))
 (let (($x3500 (= cell_7_4 1)))
 (or $x3500 $x3379 $x3545 $x3412 $x2273 $x2427 $x126 $x2594 $x1438)))))))))))
(assert
 (let (($x2138 (= cell_8_4 9)))
 (let (($x501 (= cell_8_4 8)))
 (let (($x9 (= cell_8_4 7)))
 (let (($x1224 (= cell_8_4 6)))
 (let (($x914 (= cell_8_4 5)))
 (let (($x2007 (= cell_8_4 4)))
 (let (($x1764 (= cell_8_4 3)))
 (let (($x250 (= cell_8_4 2)))
 (let (($x2413 (= cell_8_4 1)))
 (or $x2413 $x250 $x1764 $x2007 $x914 $x1224 $x9 $x501 $x2138)))))))))))
(assert
 (let (($x1988 (= cell_9_4 9)))
 (let (($x1727 (= cell_9_4 8)))
 (let (($x1909 (= cell_9_4 7)))
 (let (($x195 (= cell_9_4 6)))
 (let (($x1697 (= cell_9_4 5)))
 (let (($x1600 (= cell_9_4 4)))
 (let (($x3528 (= cell_9_4 3)))
 (let (($x5188 (= cell_9_4 2)))
 (let (($x50 (= cell_9_4 1)))
 (or $x50 $x5188 $x3528 $x1600 $x1697 $x195 $x1909 $x1727 $x1988)))))))))))
(assert
 (let (($x2798 (= cell_1_5 9)))
 (let (($x2169 (= cell_1_5 8)))
 (let (($x2534 (= cell_1_5 7)))
 (let (($x2679 (= cell_1_5 6)))
 (let (($x2211 (= cell_1_5 5)))
 (let (($x2879 (= cell_1_5 4)))
 (let (($x331 (= cell_1_5 3)))
 (let (($x283 (= cell_1_5 2)))
 (let (($x1514 (= cell_1_5 1)))
 (or $x1514 $x283 $x331 $x2879 $x2211 $x2679 $x2534 $x2169 $x2798)))))))))))
(assert
 (let (($x2287 (= cell_2_5 9)))
 (let (($x5208 (= cell_2_5 8)))
 (let (($x164 (= cell_2_5 7)))
 (let (($x2504 (= cell_2_5 6)))
 (let (($x3499 (= cell_2_5 5)))
 (let (($x174 (= cell_2_5 4)))
 (let (($x2398 (= cell_2_5 3)))
 (let (($x500 (= cell_2_5 2)))
 (let (($x6345 (= cell_2_5 1)))
 (or $x6345 $x500 $x2398 $x174 $x3499 $x2504 $x164 $x5208 $x2287)))))))))))
(assert
 (let (($x1361 (= cell_3_5 9)))
 (let (($x254 (= cell_3_5 8)))
 (let (($x1281 (= cell_3_5 7)))
 (let (($x372 (= cell_3_5 6)))
 (let (($x561 (= cell_3_5 5)))
 (let (($x304 (= cell_3_5 4)))
 (let (($x2843 (= cell_3_5 3)))
 (let (($x1717 (= cell_3_5 2)))
 (let (($x607 (= cell_3_5 1)))
 (or $x607 $x1717 $x2843 $x304 $x561 $x372 $x1281 $x254 $x1361)))))))))))
(assert
 (let (($x676 (= cell_4_5 9)))
 (let (($x890 (= cell_4_5 8)))
 (let (($x1910 (= cell_4_5 7)))
 (let (($x3197 (= cell_4_5 6)))
 (let (($x1379 (= cell_4_5 5)))
 (let (($x840 (= cell_4_5 4)))
 (let (($x222 (= cell_4_5 3)))
 (let (($x881 (= cell_4_5 2)))
 (let (($x1461 (= cell_4_5 1)))
 (or $x1461 $x881 $x222 $x840 $x1379 $x3197 $x1910 $x890 $x676)))))))))))
(assert
 (let (($x855 (= cell_5_5 9)))
 (let (($x966 (= cell_5_5 8)))
 (let (($x1956 (= cell_5_5 7)))
 (let (($x268 (= cell_5_5 6)))
 (let (($x147 (= cell_5_5 5)))
 (let (($x754 (= cell_5_5 4)))
 (let (($x2075 (= cell_5_5 3)))
 (let (($x2485 (= cell_5_5 2)))
 (let (($x285 (= cell_5_5 1)))
 (or $x285 $x2485 $x2075 $x754 $x147 $x268 $x1956 $x966 $x855)))))))))))
(assert
 (let (($x1551 (= cell_6_5 9)))
 (let (($x1883 (= cell_6_5 8)))
 (let (($x311 (= cell_6_5 7)))
 (let (($x2262 (= cell_6_5 6)))
 (let (($x1269 (= cell_6_5 5)))
 (let (($x2150 (= cell_6_5 4)))
 (let (($x820 (= cell_6_5 3)))
 (let (($x1753 (= cell_6_5 2)))
 (let (($x446 (= cell_6_5 1)))
 (or $x446 $x1753 $x820 $x2150 $x1269 $x2262 $x311 $x1883 $x1551)))))))))))
(assert
 (let (($x583 (= cell_7_5 1)))
 (or $x583 (= cell_7_5 2) (= cell_7_5 3) (= cell_7_5 4) (= cell_7_5 5) (= cell_7_5 6) (= cell_7_5 7) (= cell_7_5 8) (= cell_7_5 9))))
(assert
 (let (($x6343 (= cell_8_5 9)))
 (let (($x3403 (= cell_8_5 8)))
 (let (($x949 (= cell_8_5 7)))
 (let (($x1200 (= cell_8_5 6)))
 (let (($x2895 (= cell_8_5 5)))
 (let (($x534 (= cell_8_5 4)))
 (let (($x1752 (= cell_8_5 3)))
 (let (($x6732 (= cell_8_5 2)))
 (let (($x2857 (= cell_8_5 1)))
 (or $x2857 $x6732 $x1752 $x534 $x2895 $x1200 $x949 $x3403 $x6343)))))))))))
(assert
 (let (($x1698 (= cell_9_5 2)))
 (or (= cell_9_5 1) $x1698 (= cell_9_5 3) (= cell_9_5 4) (= cell_9_5 5) (= cell_9_5 6) (= cell_9_5 7) (= cell_9_5 8) (= cell_9_5 9))))
(assert
 (let (($x1547 (= cell_1_6 3)))
 (or (= cell_1_6 1) (= cell_1_6 2) $x1547 (= cell_1_6 4) (= cell_1_6 5) (= cell_1_6 6) (= cell_1_6 7) (= cell_1_6 8) (= cell_1_6 9))))
(assert
 (let (($x2454 (= cell_2_6 9)))
 (let (($x3368 (= cell_2_6 8)))
 (let (($x728 (= cell_2_6 7)))
 (let (($x865 (= cell_2_6 6)))
 (let (($x2239 (= cell_2_6 5)))
 (let (($x743 (= cell_2_6 4)))
 (let (($x907 (= cell_2_6 3)))
 (let (($x1676 (= cell_2_6 2)))
 (let (($x593 (= cell_2_6 1)))
 (or $x593 $x1676 $x907 $x743 $x2239 $x865 $x728 $x3368 $x2454)))))))))))
(assert
 (let (($x204 (= cell_3_6 2)))
 (or (= cell_3_6 1) $x204 (= cell_3_6 3) (= cell_3_6 4) (= cell_3_6 5) (= cell_3_6 6) (= cell_3_6 7) (= cell_3_6 8) (= cell_3_6 9))))
(assert
 (let (($x2233 (= cell_4_6 9)))
 (let (($x1739 (= cell_4_6 8)))
 (let (($x2099 (= cell_4_6 7)))
 (let (($x1203 (= cell_4_6 6)))
 (let (($x634 (= cell_4_6 5)))
 (let (($x2665 (= cell_4_6 4)))
 (let (($x27 (= cell_4_6 3)))
 (let (($x312 (= cell_4_6 2)))
 (let (($x1726 (= cell_4_6 1)))
 (or $x1726 $x312 $x27 $x2665 $x634 $x1203 $x2099 $x1739 $x2233)))))))))))
(assert
 (let (($x3385 (= cell_5_6 1)))
 (or $x3385 (= cell_5_6 2) (= cell_5_6 3) (= cell_5_6 4) (= cell_5_6 5) (= cell_5_6 6) (= cell_5_6 7) (= cell_5_6 8) (= cell_5_6 9))))
(assert
 (let (($x539 (= cell_6_6 9)))
 (let (($x3158 (= cell_6_6 8)))
 (let (($x2537 (= cell_6_6 7)))
 (let (($x2104 (= cell_6_6 6)))
 (let (($x350 (= cell_6_6 5)))
 (let (($x1582 (= cell_6_6 4)))
 (let (($x3513 (= cell_6_6 3)))
 (let (($x793 (= cell_6_6 2)))
 (let (($x1308 (= cell_6_6 1)))
 (or $x1308 $x793 $x3513 $x1582 $x350 $x2104 $x2537 $x3158 $x539)))))))))))
(assert
 (let (($x3575 (= cell_7_6 9)))
 (let (($x8 (= cell_7_6 8)))
 (let (($x1564 (= cell_7_6 7)))
 (let (($x28 (= cell_7_6 6)))
 (let (($x187 (= cell_7_6 5)))
 (let (($x2463 (= cell_7_6 4)))
 (let (($x6372 (= cell_7_6 3)))
 (let (($x831 (= cell_7_6 2)))
 (let (($x794 (= cell_7_6 1)))
 (or $x794 $x831 $x6372 $x2463 $x187 $x28 $x1564 $x8 $x3575)))))))))))
(assert
 (let (($x1573 (= cell_8_6 9)))
 (let (($x2039 (= cell_8_6 8)))
 (let (($x3544 (= cell_8_6 7)))
 (let (($x751 (= cell_8_6 6)))
 (let (($x2390 (= cell_8_6 5)))
 (let (($x5218 (= cell_8_6 4)))
 (let (($x1163 (= cell_8_6 3)))
 (let (($x1480 (= cell_8_6 2)))
 (let (($x1151 (= cell_8_6 1)))
 (or $x1151 $x1480 $x1163 $x5218 $x2390 $x751 $x3544 $x2039 $x1573)))))))))))
(assert
 (let (($x119 (= cell_9_6 9)))
 (let (($x3152 (= cell_9_6 8)))
 (let (($x2392 (= cell_9_6 7)))
 (let (($x1334 (= cell_9_6 6)))
 (let (($x3077 (= cell_9_6 5)))
 (let (($x2467 (= cell_9_6 4)))
 (let (($x760 (= cell_9_6 3)))
 (let (($x791 (= cell_9_6 2)))
 (let (($x1618 (= cell_9_6 1)))
 (or $x1618 $x791 $x760 $x2467 $x3077 $x1334 $x2392 $x3152 $x119)))))))))))
(assert
 (let (($x2301 (= cell_1_7 9)))
 (let (($x1888 (= cell_1_7 8)))
 (let (($x1069 (= cell_1_7 7)))
 (let (($x2451 (= cell_1_7 6)))
 (let (($x598 (= cell_1_7 5)))
 (let (($x1571 (= cell_1_7 4)))
 (let (($x1403 (= cell_1_7 3)))
 (let (($x303 (= cell_1_7 2)))
 (let (($x1285 (= cell_1_7 1)))
 (or $x1285 $x303 $x1403 $x1571 $x598 $x2451 $x1069 $x1888 $x2301)))))))))))
(assert
 (let (($x1309 (= cell_2_7 1)))
 (or $x1309 (= cell_2_7 2) (= cell_2_7 3) (= cell_2_7 4) (= cell_2_7 5) (= cell_2_7 6) (= cell_2_7 7) (= cell_2_7 8) (= cell_2_7 9))))
(assert
 (let (($x1350 (= cell_3_7 9)))
 (let (($x1032 (= cell_3_7 8)))
 (let (($x1046 (= cell_3_7 7)))
 (let (($x2834 (= cell_3_7 6)))
 (let (($x241 (= cell_3_7 5)))
 (let (($x200 (= cell_3_7 4)))
 (let (($x22 (= cell_3_7 3)))
 (let (($x575 (= cell_3_7 2)))
 (let (($x851 (= cell_3_7 1)))
 (or $x851 $x575 $x22 $x200 $x241 $x2834 $x1046 $x1032 $x1350)))))))))))
(assert
 (let (($x1097 (= cell_4_7 9)))
 (let (($x2037 (= cell_4_7 8)))
 (let (($x1182 (= cell_4_7 7)))
 (let (($x1434 (= cell_4_7 6)))
 (let (($x1680 (= cell_4_7 5)))
 (let (($x180 (= cell_4_7 4)))
 (let (($x2363 (= cell_4_7 3)))
 (let (($x828 (= cell_4_7 2)))
 (let (($x1681 (= cell_4_7 1)))
 (or $x1681 $x828 $x2363 $x180 $x1680 $x1434 $x1182 $x2037 $x1097)))))))))))
(assert
 (let (($x1299 (= cell_5_7 9)))
 (let (($x97 (= cell_5_7 8)))
 (let (($x1231 (= cell_5_7 7)))
 (let (($x3301 (= cell_5_7 6)))
 (let (($x546 (= cell_5_7 5)))
 (let (($x3475 (= cell_5_7 4)))
 (let (($x1413 (= cell_5_7 3)))
 (let (($x812 (= cell_5_7 2)))
 (let (($x408 (= cell_5_7 1)))
 (or $x408 $x812 $x1413 $x3475 $x546 $x3301 $x1231 $x97 $x1299)))))))))))
(assert
 (let (($x811 (= cell_6_7 9)))
 (let (($x953 (= cell_6_7 8)))
 (let (($x2198 (= cell_6_7 7)))
 (let (($x648 (= cell_6_7 6)))
 (let (($x3585 (= cell_6_7 5)))
 (let (($x417 (= cell_6_7 4)))
 (let (($x2149 (= cell_6_7 3)))
 (let (($x1469 (= cell_6_7 2)))
 (let (($x1775 (= cell_6_7 1)))
 (or $x1775 $x1469 $x2149 $x417 $x3585 $x648 $x2198 $x953 $x811)))))))))))
(assert
 (let (($x2006 (= cell_7_7 9)))
 (let (($x1245 (= cell_7_7 8)))
 (let (($x352 (= cell_7_7 7)))
 (let (($x267 (= cell_7_7 6)))
 (let (($x521 (= cell_7_7 5)))
 (let (($x2464 (= cell_7_7 4)))
 (let (($x1027 (= cell_7_7 3)))
 (let (($x1876 (= cell_7_7 2)))
 (let (($x1696 (= cell_7_7 1)))
 (or $x1696 $x1876 $x1027 $x2464 $x521 $x267 $x352 $x1245 $x2006)))))))))))
(assert
 (let (($x2726 (= cell_8_7 2)))
 (or (= cell_8_7 1) $x2726 (= cell_8_7 3) (= cell_8_7 4) (= cell_8_7 5) (= cell_8_7 6) (= cell_8_7 7) (= cell_8_7 8) (= cell_8_7 9))))
(assert
 (let (($x984 (= cell_9_7 9)))
 (let (($x2082 (= cell_9_7 8)))
 (let (($x933 (= cell_9_7 7)))
 (let (($x663 (= cell_9_7 6)))
 (let (($x2612 (= cell_9_7 5)))
 (let (($x441 (= cell_9_7 4)))
 (let (($x371 (= cell_9_7 3)))
 (let (($x1341 (= cell_9_7 2)))
 (let (($x1982 (= cell_9_7 1)))
 (or $x1982 $x1341 $x371 $x441 $x2612 $x663 $x933 $x2082 $x984)))))))))))
(assert
 (let (($x913 (= cell_1_8 9)))
 (let (($x1983 (= cell_1_8 8)))
 (let (($x1233 (= cell_1_8 7)))
 (let (($x2069 (= cell_1_8 6)))
 (let (($x1632 (= cell_1_8 5)))
 (let (($x1759 (= cell_1_8 4)))
 (let (($x877 (= cell_1_8 3)))
 (let (($x1869 (= cell_1_8 2)))
 (let (($x997 (= cell_1_8 1)))
 (or $x997 $x1869 $x877 $x1759 $x1632 $x2069 $x1233 $x1983 $x913)))))))))))
(assert
 (let (($x2137 (= cell_2_8 2)))
 (or (= cell_2_8 1) $x2137 (= cell_2_8 3) (= cell_2_8 4) (= cell_2_8 5) (= cell_2_8 6) (= cell_2_8 7) (= cell_2_8 8) (= cell_2_8 9))))
(assert
 (let (($x487 (= cell_3_8 9)))
 (let (($x2269 (= cell_3_8 8)))
 (let (($x1392 (= cell_3_8 7)))
 (let (($x954 (= cell_3_8 6)))
 (let (($x1695 (= cell_3_8 5)))
 (let (($x1086 (= cell_3_8 4)))
 (let (($x1282 (= cell_3_8 3)))
 (let (($x3080 (= cell_3_8 2)))
 (let (($x2298 (= cell_3_8 1)))
 (or $x2298 $x3080 $x1282 $x1086 $x1695 $x954 $x1392 $x2269 $x487)))))))))))
(assert
 (let (($x2801 (= cell_4_8 9)))
 (let (($x650 (= cell_4_8 8)))
 (let (($x2846 (= cell_4_8 7)))
 (let (($x519 (= cell_4_8 6)))
 (let (($x415 (= cell_4_8 5)))
 (let (($x3469 (= cell_4_8 4)))
 (let (($x2344 (= cell_4_8 3)))
 (let (($x1025 (= cell_4_8 2)))
 (let (($x1666 (= cell_4_8 1)))
 (or $x1666 $x1025 $x2344 $x3469 $x415 $x519 $x2846 $x650 $x2801)))))))))))
(assert
 (let (($x298 (= cell_5_8 9)))
 (let (($x2669 (= cell_5_8 8)))
 (let (($x2400 (= cell_5_8 7)))
 (let (($x554 (= cell_5_8 6)))
 (let (($x1386 (= cell_5_8 5)))
 (let (($x617 (= cell_5_8 4)))
 (let (($x236 (= cell_5_8 3)))
 (let (($x153 (= cell_5_8 2)))
 (let (($x231 (= cell_5_8 1)))
 (or $x231 $x153 $x236 $x617 $x1386 $x554 $x2400 $x2669 $x298)))))))))))
(assert
 (let (($x1102 (= cell_6_8 1)))
 (or $x1102 (= cell_6_8 2) (= cell_6_8 3) (= cell_6_8 4) (= cell_6_8 5) (= cell_6_8 6) (= cell_6_8 7) (= cell_6_8 8) (= cell_6_8 9))))
(assert
 (let (($x495 (= cell_7_8 9)))
 (let (($x2794 (= cell_7_8 8)))
 (let (($x1533 (= cell_7_8 7)))
 (let (($x488 (= cell_7_8 6)))
 (let (($x421 (= cell_7_8 5)))
 (let (($x338 (= cell_7_8 4)))
 (let (($x3509 (= cell_7_8 3)))
 (let (($x1439 (= cell_7_8 2)))
 (let (($x724 (= cell_7_8 1)))
 (or $x724 $x1439 $x3509 $x338 $x421 $x488 $x1533 $x2794 $x495)))))))))))
(assert
 (let (($x1673 (= cell_8_8 9)))
 (let (($x1065 (= cell_8_8 8)))
 (let (($x2897 (= cell_8_8 7)))
 (let (($x186 (= cell_8_8 6)))
 (let (($x3004 (= cell_8_8 5)))
 (let (($x1389 (= cell_8_8 4)))
 (let (($x2815 (= cell_8_8 3)))
 (let (($x2156 (= cell_8_8 2)))
 (let (($x2155 (= cell_8_8 1)))
 (or $x2155 $x2156 $x2815 $x1389 $x3004 $x186 $x2897 $x1065 $x1673)))))))))))
(assert
 (let (($x1521 (= cell_9_8 9)))
 (let (($x2433 (= cell_9_8 8)))
 (let (($x1059 (= cell_9_8 7)))
 (let (($x169 (= cell_9_8 6)))
 (let (($x481 (= cell_9_8 5)))
 (let (($x38 (= cell_9_8 4)))
 (let (($x1554 (= cell_9_8 3)))
 (let (($x2920 (= cell_9_8 2)))
 (let (($x2725 (= cell_9_8 1)))
 (or $x2725 $x2920 $x1554 $x38 $x481 $x169 $x1059 $x2433 $x1521)))))))))))
(assert
 (let (($x2969 (= cell_1_9 9)))
 (let (($x1177 (= cell_1_9 8)))
 (let (($x959 (= cell_1_9 7)))
 (let (($x939 (= cell_1_9 6)))
 (let (($x3326 (= cell_1_9 5)))
 (let (($x1506 (= cell_1_9 4)))
 (let (($x5234 (= cell_1_9 3)))
 (let (($x2040 (= cell_1_9 2)))
 (let (($x2983 (= cell_1_9 1)))
 (or $x2983 $x2040 $x5234 $x1506 $x3326 $x939 $x959 $x1177 $x2969)))))))))))
(assert
 (let (($x1989 (= cell_2_9 9)))
 (let (($x5243 (= cell_2_9 8)))
 (let (($x1962 (= cell_2_9 7)))
 (let (($x175 (= cell_2_9 6)))
 (let (($x489 (= cell_2_9 5)))
 (let (($x1903 (= cell_2_9 4)))
 (let (($x2128 (= cell_2_9 3)))
 (let (($x2717 (= cell_2_9 2)))
 (let (($x1565 (= cell_2_9 1)))
 (or $x1565 $x2717 $x2128 $x1903 $x489 $x175 $x1962 $x5243 $x1989)))))))))))
(assert
 (let (($x596 (= cell_3_9 9)))
 (let (($x3153 (= cell_3_9 8)))
 (let (($x2042 (= cell_3_9 7)))
 (let (($x3370 (= cell_3_9 6)))
 (let (($x238 (= cell_3_9 5)))
 (let (($x1196 (= cell_3_9 4)))
 (let (($x895 (= cell_3_9 3)))
 (let (($x468 (= cell_3_9 2)))
 (let (($x1129 (= cell_3_9 1)))
 (or $x1129 $x468 $x895 $x1196 $x238 $x3370 $x2042 $x3153 $x596)))))))))))
(assert
 (let (($x1735 (= cell_4_9 9)))
 (let (($x1497 (= cell_4_9 8)))
 (let (($x585 (= cell_4_9 7)))
 (let (($x535 (= cell_4_9 6)))
 (let (($x897 (= cell_4_9 5)))
 (let (($x400 (= cell_4_9 4)))
 (let (($x278 (= cell_4_9 3)))
 (let (($x637 (= cell_4_9 2)))
 (let (($x2900 (= cell_4_9 1)))
 (or $x2900 $x637 $x278 $x400 $x897 $x535 $x585 $x1497 $x1735)))))))))))
(assert
 (let (($x722 (= cell_5_9 2)))
 (or (= cell_5_9 1) $x722 (= cell_5_9 3) (= cell_5_9 4) (= cell_5_9 5) (= cell_5_9 6) (= cell_5_9 7) (= cell_5_9 8) (= cell_5_9 9))))
(assert
 (let (($x862 (= cell_6_9 9)))
 (let (($x2199 (= cell_6_9 8)))
 (let (($x2647 (= cell_6_9 7)))
 (let (($x1760 (= cell_6_9 6)))
 (let (($x945 (= cell_6_9 5)))
 (let (($x1611 (= cell_6_9 4)))
 (let (($x687 (= cell_6_9 3)))
 (let (($x1125 (= cell_6_9 2)))
 (let (($x1786 (= cell_6_9 1)))
 (or $x1786 $x1125 $x687 $x1611 $x945 $x1760 $x2647 $x2199 $x862)))))))))))
(assert
 (let (($x852 (= cell_7_9 9)))
 (let (($x466 (= cell_7_9 8)))
 (let (($x2078 (= cell_7_9 7)))
 (let (($x2521 (= cell_7_9 6)))
 (let (($x1178 (= cell_7_9 5)))
 (let (($x354 (= cell_7_9 4)))
 (let (($x1718 (= cell_7_9 3)))
 (let (($x3344 (= cell_7_9 2)))
 (let (($x1107 (= cell_7_9 1)))
 (or $x1107 $x3344 $x1718 $x354 $x1178 $x2521 $x2078 $x466 $x852)))))))))))
(assert
 (let (($x100 (= cell_8_9 9)))
 (let (($x439 (= cell_8_9 8)))
 (let (($x571 (= cell_8_9 7)))
 (let (($x2708 (= cell_8_9 6)))
 (let (($x30 (= cell_8_9 5)))
 (let (($x1895 (= cell_8_9 4)))
 (let (($x1357 (= cell_8_9 3)))
 (let (($x203 (= cell_8_9 2)))
 (let (($x2259 (= cell_8_9 1)))
 (or $x2259 $x203 $x1357 $x1895 $x30 $x2708 $x571 $x439 $x100)))))))))))
(assert
 (let (($x437 (= cell_9_9 1)))
 (or $x437 (= cell_9_9 2) (= cell_9_9 3) (= cell_9_9 4) (= cell_9_9 5) (= cell_9_9 6) (= cell_9_9 7) (= cell_9_9 8) (= cell_9_9 9))))
(assert
 (and (distinct cell_1_1 cell_1_2 cell_1_3 cell_1_4 cell_1_5 cell_1_6 cell_1_7 cell_1_8 cell_1_9) true))
(assert
 (and (distinct cell_2_1 cell_2_2 cell_2_3 cell_2_4 cell_2_5 cell_2_6 cell_2_7 cell_2_8 cell_2_9) true))
(assert
 (and (distinct cell_3_1 cell_3_2 cell_3_3 cell_3_4 cell_3_5 cell_3_6 cell_3_7 cell_3_8 cell_3_9) true))
(assert
 (and (distinct cell_4_1 cell_4_2 cell_4_3 cell_4_4 cell_4_5 cell_4_6 cell_4_7 cell_4_8 cell_4_9) true))
(assert
 (and (distinct cell_5_1 cell_5_2 cell_5_3 cell_5_4 cell_5_5 cell_5_6 cell_5_7 cell_5_8 cell_5_9) true))
(assert
 (and (distinct cell_6_1 cell_6_2 cell_6_3 cell_6_4 cell_6_5 cell_6_6 cell_6_7 cell_6_8 cell_6_9) true))
(assert
 (and (distinct cell_7_1 cell_7_2 cell_7_3 cell_7_4 cell_7_5 cell_7_6 cell_7_7 cell_7_8 cell_7_9) true))
(assert
 (and (distinct cell_8_1 cell_8_2 cell_8_3 cell_8_4 cell_8_5 cell_8_6 cell_8_7 cell_8_8 cell_8_9) true))
(assert
 (and (distinct cell_9_1 cell_9_2 cell_9_3 cell_9_4 cell_9_5 cell_9_6 cell_9_7 cell_9_8 cell_9_9) true))
(assert
 (and (distinct cell_1_1 cell_2_1 cell_3_1 cell_4_1 cell_5_1 cell_6_1 cell_7_1 cell_8_1 cell_9_1) true))
(assert
 (and (distinct cell_1_2 cell_2_2 cell_3_2 cell_4_2 cell_5_2 cell_6_2 cell_7_2 cell_8_2 cell_9_2) true))
(assert
 (and (distinct cell_1_3 cell_2_3 cell_3_3 cell_4_3 cell_5_3 cell_6_3 cell_7_3 cell_8_3 cell_9_3) true))
(assert
 (and (distinct cell_1_4 cell_2_4 cell_3_4 cell_4_4 cell_5_4 cell_6_4 cell_7_4 cell_8_4 cell_9_4) true))
(assert
 (and (distinct cell_1_5 cell_2_5 cell_3_5 cell_4_5 cell_5_5 cell_6_5 cell_7_5 cell_8_5 cell_9_5) true))
(assert
 (and (distinct cell_1_6 cell_2_6 cell_3_6 cell_4_6 cell_5_6 cell_6_6 cell_7_6 cell_8_6 cell_9_6) true))
(assert
 (and (distinct cell_1_7 cell_2_7 cell_3_7 cell_4_7 cell_5_7 cell_6_7 cell_7_7 cell_8_7 cell_9_7) true))
(assert
 (and (distinct cell_1_8 cell_2_8 cell_3_8 cell_4_8 cell_5_8 cell_6_8 cell_7_8 cell_8_8 cell_9_8) true))
(assert
 (and (distinct cell_1_9 cell_2_9 cell_3_9 cell_4_9 cell_5_9 cell_6_9 cell_7_9 cell_8_9 cell_9_9) true))
(assert
 (and (distinct cell_1_1 cell_1_2 cell_1_3 cell_2_1 cell_2_2 cell_2_3 cell_3_1 cell_3_2 cell_3_3) true))
(assert
 (and (distinct cell_1_4 cell_1_5 cell_1_6 cell_2_4 cell_2_5 cell_2_6 cell_3_4 cell_3_5 cell_3_6) true))
(assert
 (and (distinct cell_1_7 cell_1_8 cell_1_9 cell_2_7 cell_2_8 cell_2_9 cell_3_7 cell_3_8 cell_3_9) true))
(assert
 (and (distinct cell_4_1 cell_4_2 cell_4_3 cell_5_1 cell_5_2 cell_5_3 cell_6_1 cell_6_2 cell_6_3) true))
(assert
 (and (distinct cell_4_4 cell_4_5 cell_4_6 cell_5_4 cell_5_5 cell_5_6 cell_6_4 cell_6_5 cell_6_6) true))
(assert
 (and (distinct cell_4_7 cell_4_8 cell_4_9 cell_5_7 cell_5_8 cell_5_9 cell_6_7 cell_6_8 cell_6_9) true))
(assert
 (and (distinct cell_7_1 cell_7_2 cell_7_3 cell_8_1 cell_8_2 cell_8_3 cell_9_1 cell_9_2 cell_9_3) true))
(assert
 (and (distinct cell_7_4 cell_7_5 cell_7_6 cell_8_4 cell_8_5 cell_8_6 cell_9_4 cell_9_5 cell_9_6) true))
(assert
 (and (distinct cell_7_7 cell_7_8 cell_7_9 cell_8_7 cell_8_8 cell_8_9 cell_9_7 cell_9_8 cell_9_9) true))
(assert
 (let (($x121 (and (distinct cell_5_9 cell_6_8 cell_7_7 cell_8_6) true)))
 (let (($x272 (and (distinct cell_2_9 cell_3_8 cell_4_7 cell_5_6 cell_6_5 cell_7_4 cell_8_3 cell_9_2) true)))
 (let (($x2752 (and (distinct cell_1_8 cell_2_7 cell_3_6 cell_4_5 cell_5_4 cell_6_3 cell_7_2 cell_8_1) true)))
 (let (($x5202 (and (distinct cell_1_5 cell_2_4 cell_3_3 cell_4_2) true)))
 (let (($x788 (and (distinct cell_5_1 cell_6_2 cell_7_3 cell_8_4) true)))
 (let (($x680 (and (distinct cell_2_1 cell_3_2 cell_4_3 cell_5_4 cell_6_5 cell_7_6 cell_8_7 cell_9_8) true)))
 (let (($x1689 (and (distinct cell_1_2 cell_2_3 cell_3_4 cell_4_5 cell_5_6 cell_6_7 cell_7_8 cell_8_9) true)))
 (let (($x2364 (and (distinct cell_1_5 cell_2_6 cell_3_7 cell_4_8) true)))
 (and $x2364 $x1689 $x680 $x788 $x5202 $x2752 $x272 $x121))))))))))
(assert
 (and (distinct cell_2_2 3) true))
(check-sat)
